Gurobi Optimizer version 10.0.3 build v10.0.3rc0 (win64)

CPU model: 13th Gen Intel(R) Core(TM) i7-13700T, instruction set [SSE2|AVX|AVX2]
Thread count: 16 physical cores, 24 logical processors, using up to 24 threads

Optimize a model with 551485 rows, 981779 columns and 1566985 nonzeros
Model fingerprint: 0x9ae562b1
Variable types: 0 continuous, 981779 integer (173400 binary)
Coefficient statistics:
  Matrix range     [1e+00, 1e+00]
  Objective range  [7e+00, 3e+02]
  Bounds range     [1e+00, 1e+00]
  RHS range        [1e+00, 6e+02]
Presolve removed 551485 rows and 981779 columns
Presolve time: 0.52s
Presolve: All rows and columns removed

Explored 0 nodes (0 simplex iterations) in 0.68 seconds (1.21 work units)
Thread count was 1 (of 24 available processors)

Solution count 1: 105998 

Optimal solution found (tolerance 1.00e-04)
Best objective 1.059976400000e+05, best bound 1.059976400000e+05, gap 0.0000%
Valor da função objetivo:  105997.64

Tempo para criar o modelo:  13.159558296203613
